32173 0
14 171 136 83 40 164 23 26 87 178 12 180 78 146 72 38 187 70 121 122 92 59 61 195 36 34 29 143 1 99 118 50 191 18 135 144 47 140 91 116 177 54 112 86 25 162 130 147 94 150 55 9 181 20 46 27 11 114 132 105 103 182 81 163 113 24 19 141 8 101 115 5 17 188 186 13 67 32 165 44 98 30 56 71 134 160 6 197 194 102 107 198 128 131 66 74 158 35 175 196 190 28 127 57 110 192 21 184 172 41 88 152 69 138 48 169 97 166 96 104 31 93 139 16 89 10 167 109 22 120 7 65 37 185 148 33 168 161 125 199 155 0 49 174 129 80 179 119 137 51 45 145 124 108 189 100 73 111 60 170 126 75 133 156 79 193 77 173 64 159 85 95 142 84 63 149 58 39 82 2 176 4 117 123 52 43 3 154 42 76 90 53 153 62 15 151 157 183 106 68 
